1111111 AB
360 390 420 450 480 510 540 570 585 600 609 618 627 636 645 654 663 678 693 708 723 738 753 768 783 798 813 823 832 842 851 861 871 881 891 901 911 925 939 953 967 981 995 1010 1024 1038 1047 1056 1065 1074 1083 1092 1101 1110 1120 1135 1150 1165 1180 1195 1210 1240 1270 1299
1111111 BA
371 401 431 461 491 521 551 581 596 611 620 629 638 647 656 665 674 689 704 719 734 749 764 779 794 809 824 834 843 853 862 872 882 892 902 912 922 936 950 964 978 992 1006 1021 1035 1049 1058 1067 1076 1085 1094 1103 1112 1121 1131 1146 1161 1176 1191 1206 1221 1251 1281 1310
